226 156949
1 2 3 4 5 6 7 8 11 12 13 71 68 67 65 57 58 59 60 61 62 63 126 119 128 127 129 131 123 130 163 159 158 157 156 155 160 161 162 171 180 185 191 192 193 194 195 196 197 198 199 200 201 202 203 204 205 206 133 134 135 136 190 189 188 187 186 143 141 138 97 44 45 48 33 32 31 30 34 35 38 39 40 41 154 164 165 166 167 168 169 170 150 148 142 149 140 147 139 145 146 144 137 93 92 91 90 88 89 96 95 47 46 49 28 26 25 24 23 50 51 52 53 54 55 56 64 103 111 112 113 114 106 107 115 108 109 110 184 183 182 181 179 178 177 176 175 174 173 172 153 152 151 94 101 102 100 99 98 87 43 42 37 36 29 27 22 21 20 19 18 17 16 15 14 10 9 72 69 70 66 105 104 116 117 118 120 121 122 124 207 208 209 210 211 212 213 214 215 216 132 125 217 218 219 220 221 222 223 224 225 226 86 85 84 83 82 81 80 79 78 77 76 75 74 73 
